0 8 5 9 12 14 12 16 17 22
8 0 9 15 17 8 11 18 14 22
5 9 0 7 9 11 7 12 12 17
9 15 7 0 3 17 10 7 15 18
12 17 9 3 0 8 10 6 15 15
14 8 11 17 8 0 9 14 8 16
12 11 7 10 10 9 0 8 6 11
16 18 12 7 6 14 8 0 11 11
17 14 12 15 15 8 6 11 0 10
22 22 17 18 15 16 11 11 10 0